1 -1 -2 0
13569641 3 -4 0
1 5 6 0
63100977 -7 2 0
1 6 5 0
77007439 -7 2 0
21721365 -3 7 -4 -6 0
53568151 3 -6 0
1 -7 0
60384127 6 2 0
1 4 -7 0
25816514 5 6 0
73541318 -4 -1 6 0
1 7 -3 0
1 -4 -5 0
h 7 8 5 0
53313202 -8 0
h 1 -6 9 0
65764847 -9 0
h 2 -7 10 0
77433197 -10 0
h 11 3 0
h -6 -3 11 0
49665292 -11 0
h 5 -7 12 0
39339076 -12 0
h 13 -7 0
h 4 13 0
62551713 -13 0
h 1 -6 14 0
1 -14 0
h -4 -2 0
h 4 2 0
h -3 7 15 0
1 -15 0
h 2 -5 0
h 5 -2 0
h -3 1 0
h -1 3 0
h -4 -6 16 0
17691363 -16 0
h -6 17 -4 0
40588674 -17 0
h -7 4 0
